9,1,4,2,1,3,5,3,3,4,8,3,2,3,4,5,2,5,10,4,10,5;7,1,1,1,1,2,6,2,7,3,10,2,7,5,10,3,1,5;4,1,3,1,5,2,9,2,2,1,6,3,2,2,9,4,2,4,9,5,5,5;5,1,8,1,3,2,4,3,9,3,4,4,7,4,5,4,3,5,6,5;6,1,7,2,8,2,10,1,3,3,1,4,6,4,8,4,8,5;
